output/terracing_ilp.lp
Maximize
  1.5085977021218888e-04 Z_498_0_0 + 0.00214489625236361 Z_498_0_1
   + 0.0752719799227414 Z_498_0_2 + 0.7740863221293913 Z_498_0_3
   + 0.0483459419252915 Z_498_0_4
Subject To
 constraint1_4980: Z_498_0_0 + Z_498_0_1 + Z_498_0_2 + Z_498_0_3
   + Z_498_0_4 <= 1
 constraint2_4980: Z_498_0_0 <= 1
 constraint2_4981: Z_498_0_1 <= 1
 constraint2_4982: Z_498_0_2 <= 1
 constraint2_4983: Z_498_0_3 <= 1
Bounds
Binaries
 Z_498_0_0 Z_498_0_1 Z_498_0_2 Z_498_0_3 Z_498_0_4
End
