output/terracing_ilp.sol
# Solution for model terracing_srl_ilp
# Objective value = 7.7408632212939132e-01
Z_498_0_0 0
Z_498_0_1 0
Z_498_0_2 0
Z_498_0_3 1
Z_498_0_4 0
